benchmarks_vrp/CMT12/no_cluster/CMT12_7.vrp
NAME: CMT12_7
TYPE: CVRP
COMMENT: 819.56 - Cluster Nr.7
DIMENSION: 10
CAPACITY: 200
EDGE_WEIGHT_TYPE: EUC_2D
NODE_COORD_TYPE: TWOD_COORDS
NODE_COORD_SECTION: 
3 75 55
4 67 85
5 63 58
2 62 80
9 65 82
8 65 60
6 68 60
7 40 50
10 72 55
1 70 58
DEPOT_SECTION: 
7
-1
DEMAND_SECTION: 
10 10
2 30
6 30
7 0
5 10
8 30
9 10
4 20
1 20
3 20
EOF
