benchmarks_vrp/CMT12/no_cluster/CMT12_7.tour
NAME: CMT12_7 solution
TYPE: TOUR
TOUR_SECTION:
7 2 9 4 3 10 1 6 8 5 -1
-1
EOF